TYPE : TSP
DIMENSION : 10
EDGE_WEIGHT_TYPE : EXPLICIT
EDGE_WEIGHT_FORMAT : FULL_MATRIX
EDGE_WEIGHT_SECTION
0 7472 746 8299 4191 8119 9594 9212 7624 2486 
7472 0 7340 2209 7850 646 2125 1756 3394 6785 
746 7340 0 7976 4882 7983 9463 9094 7178 1765 
8299 2209 7976 0 9562 2145 2763 2683 1669 6950 
4191 7850 4882 9562 0 8406 9666 9260 9611 6367 
8119 646 7983 2145 8406 0 1480 1120 3571 7399 
9594 2125 9463 2763 9666 1480 0 408 4418 8848 
9212 1756 9094 2683 9260 1120 408 0 4302 8517 
7624 3394 7178 1669 9611 3571 4418 4302 0 5888 
2486 6785 1765 6950 6367 7399 8848 8517 5888 0 
EOF
